(set-info :source |printed by MathSAT|)
(declare-fun |.x{665}| () Int)
(declare-fun |.y{63}| () Int)
(declare-fun |.y{35}| () Int)
(declare-fun |.y{64}| () Int)
(declare-fun |.y{36}| () Int)
(declare-fun |.y{65}| () Int)
(declare-fun |.x{666}| () (Array Int Int))
(declare-fun |.y{66}| () (Array Int Int))
(declare-fun |.x{669}| () Int)
(declare-fun |.y{67}| () Int)
(declare-fun |.x{670}| () (Array Int Int))
(declare-fun |.y{68}| () (Array Int Int))
(declare-fun |.x{668}| () Int)
(declare-fun |.y{69}| () Int)
(declare-fun |.x{662}| () Int)
(declare-fun |.y{70}| () Int)
(declare-fun |.y{37}| () Int)
(declare-fun |.y{71}| () Int)
(declare-fun |.y{38}| () Int)
(declare-fun |.y{72}| () Int)
(declare-fun |.y{39}| () Int)
(declare-fun |.y{73}| () Int)
(declare-fun |.y{40}| () Int)
(declare-fun |.y{74}| () Int)
(declare-fun |.y{41}| () Int)
(declare-fun |.y{75}| () Int)
(declare-fun |.y{42}| () Int)
(declare-fun |.y{76}| () Int)
(declare-fun |.y{43}| () (Array Int Int))
(declare-fun |.y{77}| () (Array Int Int))
(declare-fun |.y{44}| () (Array Int Int))
(declare-fun |.y{78}| () (Array Int Int))
(declare-fun |.y{45}| () (Array Int Int))
(declare-fun |.y{79}| () (Array Int Int))
(declare-fun |.y{46}| () (Array Int Int))
(declare-fun |.y{80}| () (Array Int Int))
(declare-fun |.y{47}| () (Array Int Int))
(declare-fun |.y{81}| () (Array Int Int))
(declare-fun |.y{48}| () (Array Int Int))
(declare-fun |.y{82}| () (Array Int Int))
(declare-fun |.y{49}| () (Array Int Int))
(declare-fun |.y{83}| () (Array Int Int))
(declare-fun |.y{50}| () Int)
(declare-fun |.y{84}| () Int)
(declare-fun |.y{51}| () Int)
(declare-fun |.y{85}| () Int)
(declare-fun |.y{52}| () Int)
(declare-fun |.y{86}| () Int)
(declare-fun |.y{53}| () Int)
(declare-fun |.y{87}| () Int)
(declare-fun |.y{54}| () Int)
(declare-fun |.y{88}| () Int)
(declare-fun |.y{55}| () Int)
(declare-fun |.y{89}| () Int)
(declare-fun |.y{56}| () Int)
(declare-fun |.y{90}| () Int)
(declare-fun |.y{57}| () (Array Int Int))
(declare-fun |.y{91}| () (Array Int Int))
(declare-fun |.y{58}| () (Array Int Int))
(declare-fun |.y{92}| () (Array Int Int))
(declare-fun |.y{59}| () (Array Int Int))
(declare-fun |.y{93}| () (Array Int Int))
(declare-fun |.y{60}| () (Array Int Int))
(declare-fun |.y{94}| () (Array Int Int))
(declare-fun |.y{61}| () (Array Int Int))
(declare-fun |.y{95}| () (Array Int Int))
(declare-fun |.y{62}| () (Array Int Int))
(declare-fun |.y{96}| () (Array Int Int))
(declare-fun |.loc{5}| () Bool)
(declare-fun |.loc{9}| () Bool)
(declare-fun |.loc{6}| () Bool)
(declare-fun |.loc{10}| () Bool)
(declare-fun |.loc{7}| () Bool)
(declare-fun |.loc{11}| () Bool)
(declare-fun |.loc{8}| () Bool)
(declare-fun |.loc{12}| () Bool)
(declare-fun |.x{671}| () Int)
(declare-fun |.x{54}| () Int)
(declare-fun |.x{667}| () Int)
(define-fun .def_76 () Bool (! |.loc{5}| :next |.loc{9}|))
(define-fun .def_218 () Bool (not .def_76))
(define-fun .def_78 () Bool (! |.loc{6}| :next |.loc{10}|))
(define-fun .def_94 () Bool (not .def_78))
(define-fun .def_708 () Bool (and .def_94 .def_218))
(define-fun .def_80 () Bool (! |.loc{7}| :next |.loc{11}|))
(define-fun .def_93 () Bool (not .def_80))
(define-fun .def_709 () Bool (and .def_93 .def_708))
(define-fun .def_82 () Bool (! |.loc{8}| :next |.loc{12}|))
(define-fun .def_101 () Bool (not .def_82))
(define-fun .def_710 () Bool (! (and .def_101 .def_709) :init true))
(define-fun .def_141 () Bool (not |.loc{11}|))
(define-fun .def_692 () Bool (and |.loc{12}| .def_141))
(define-fun .def_14 () (Array Int Int) (! |.x{666}| :next |.y{66}|))
(define-fun .def_658 () Int (select .def_14 |.x{667}|))
(define-fun .def_18 () (Array Int Int) (! |.x{670}| :next |.y{68}|))
(define-fun .def_657 () Int (select .def_18 |.x{671}|))
(define-fun .def_659 () Bool (= .def_657 .def_658))
(define-fun .def_683 () Bool (not .def_659))
(define-fun .def_87 () Int (* (- 1) |.x{671}|))
(define-fun .def_20 () Int (! |.x{668}| :next |.y{69}|))
(define-fun .def_281 () Int (+ .def_20 .def_87))
(define-fun .def_16 () Int (! |.x{669}| :next |.y{67}|))
(define-fun .def_635 () Int (+ .def_16 .def_281))
(define-fun .def_636 () Bool (= .def_635 0))
(define-fun .def_672 () Bool (and |.loc{10}| .def_636))
(define-fun .def_22 () Int (! |.x{662}| :next |.y{70}|))
(define-fun .def_638 () Bool (<= .def_22 .def_20))
(define-fun .def_639 () Bool (not .def_638))
(define-fun .def_673 () Bool (and .def_639 .def_672))
(define-fun .def_250 () Bool (not |.loc{9}|))
(define-fun .def_674 () Bool (and .def_250 .def_673))
(define-fun .def_8 () Int (! |.x{665}| :next |.y{63}|))
(define-fun .def_641 () Bool (<= .def_8 0))
(define-fun .def_174 () Bool (<= |.x{667}| 0))
(define-fun .def_175 () Bool (not .def_174))
(define-fun .def_642 () Bool (or .def_175 .def_641))
(define-fun .def_675 () Bool (and .def_642 .def_674))
(define-fun .def_644 () Bool (not .def_641))
(define-fun .def_676 () Bool (and .def_644 .def_675))
(define-fun .def_677 () Bool (and .def_76 .def_676))
(define-fun .def_127 () Bool (<= .def_16 0))
(define-fun .def_125 () Bool (<= |.x{671}| 0))
(define-fun .def_126 () Bool (not .def_125))
(define-fun .def_128 () Bool (or .def_126 .def_127))
(define-fun .def_678 () Bool (and .def_128 .def_677))
(define-fun .def_679 () Bool (and .def_128 .def_678))
(define-fun .def_132 () Bool (not .def_127))
(define-fun .def_680 () Bool (and .def_132 .def_679))
(define-fun .def_681 () Bool (and .def_132 .def_680))
(define-fun .def_166 () Int (* (- 1) |.x{667}|))
(define-fun .def_269 () Int (+ .def_20 .def_166))
(define-fun .def_654 () Int (+ .def_8 .def_269))
(define-fun .def_655 () Bool (= .def_654 0))
(define-fun .def_682 () Bool (and .def_655 .def_681))
(define-fun .def_684 () Bool (and .def_682 .def_683))
(define-fun .def_380 () Bool (= |.y{67}| .def_22))
(define-fun .def_663 () Bool (and |.loc{9}| .def_380))
(define-fun .def_36 () (Array Int Int) (! |.y{43}| :next |.y{77}|))
(define-fun .def_382 () Bool (= |.y{68}| .def_36))
(define-fun .def_664 () Bool (and .def_382 .def_663))
(define-fun .def_50 () Int (! |.y{50}| :next |.y{84}|))
(define-fun .def_385 () Bool (= |.y{70}| .def_50))
(define-fun .def_665 () Bool (and .def_385 .def_664))
(define-fun .def_171 () Bool (not |.loc{10}|))
(define-fun .def_666 () Bool (and .def_171 .def_665))
(define-fun .def_667 () Bool (and .def_218 .def_666))
(define-fun .def_296 () Bool (= |.y{69}| 0))
(define-fun .def_668 () Bool (and .def_296 .def_667))
(define-fun .def_604 () Bool (<= .def_50 .def_20))
(define-fun .def_669 () Bool (and .def_604 .def_668))
(define-fun .def_97 () Bool (= .def_8 |.y{63}|))
(define-fun .def_670 () Bool (and .def_97 .def_669))
(define-fun .def_228 () Bool (= .def_14 |.y{66}|))
(define-fun .def_671 () Bool (and .def_228 .def_670))
(define-fun .def_685 () Bool (or .def_671 .def_684))
(define-fun .def_637 () Bool (and |.loc{9}| .def_636))
(define-fun .def_640 () Bool (and .def_637 .def_639))
(define-fun .def_643 () Bool (and .def_640 .def_642))
(define-fun .def_645 () Bool (and .def_643 .def_644))
(define-fun .def_261 () Int (* (- 1) |.y{69}|))
(define-fun .def_262 () Int (+ .def_20 .def_261))
(define-fun .def_263 () Bool (= .def_262 (- 1)))
(define-fun .def_646 () Bool (and .def_263 .def_645))
(define-fun .def_647 () Bool (and .def_171 .def_646))
(define-fun .def_648 () Bool (and .def_76 .def_647))
(define-fun .def_151 () Bool (= .def_16 |.y{67}|))
(define-fun .def_649 () Bool (and .def_151 .def_648))
(define-fun .def_276 () Bool (= .def_18 |.y{68}|))
(define-fun .def_650 () Bool (and .def_276 .def_649))
(define-fun .def_651 () Bool (and .def_128 .def_650))
(define-fun .def_160 () Bool (= .def_22 |.y{70}|))
(define-fun .def_652 () Bool (and .def_160 .def_651))
(define-fun .def_653 () Bool (and .def_132 .def_652))
(define-fun .def_656 () Bool (and .def_653 .def_655))
(define-fun .def_660 () Bool (and .def_656 .def_659))
(define-fun .def_661 () Bool (and .def_97 .def_660))
(define-fun .def_662 () Bool (and .def_228 .def_661))
(define-fun .def_686 () Bool (or .def_662 .def_685))
(define-fun .def_687 () Bool (and .def_82 .def_686))
(define-fun .def_688 () Bool (and .def_94 .def_687))
(define-fun .def_689 () Bool (and .def_93 .def_688))
(define-fun .def_64 () (Array Int Int) (! |.y{57}| :next |.y{91}|))
(define-fun .def_627 () Bool (= |.y{77}| .def_64))
(define-fun .def_619 () Bool (and .def_380 .def_382))
(define-fun .def_620 () Bool (and .def_385 .def_619))
(define-fun .def_621 () Bool (and .def_250 .def_620))
(define-fun .def_622 () Bool (and .def_171 .def_621))
(define-fun .def_623 () Bool (and .def_101 .def_622))
(define-fun .def_624 () Bool (and .def_76 .def_623))
(define-fun .def_625 () Bool (and .def_78 .def_624))
(define-fun .def_626 () Bool (and .def_80 .def_625))
(define-fun .def_628 () Bool (and .def_626 .def_627))
(define-fun .def_52 () Int (! |.y{51}| :next |.y{85}|))
(define-fun .def_553 () Bool (<= .def_52 .def_20))
(define-fun .def_629 () Bool (and .def_553 .def_628))
(define-fun .def_630 () Bool (and .def_296 .def_629))
(define-fun .def_631 () Bool (and .def_97 .def_630))
(define-fun .def_632 () Bool (and .def_228 .def_631))
(define-fun .def_388 () Bool (= |.y{84}| .def_52))
(define-fun .def_633 () Bool (and .def_388 .def_632))
(define-fun .def_690 () Bool (or .def_633 .def_689))
(define-fun .def_605 () Bool (not .def_604))
(define-fun .def_95 () Bool (and .def_93 .def_94))
(define-fun .def_598 () Bool (and .def_95 .def_97))
(define-fun .def_226 () Bool (= .def_50 |.y{84}|))
(define-fun .def_599 () Bool (and .def_226 .def_598))
(define-fun .def_600 () Bool (and .def_228 .def_599))
(define-fun .def_601 () Bool (and .def_132 .def_600))
(define-fun .def_602 () Bool (and .def_250 .def_601))
(define-fun .def_255 () Int (select .def_18 |.x{667}|))
(define-fun .def_256 () (Array Int Int) (store .def_36 |.x{671}| .def_255))
(define-fun .def_257 () Bool (= |.y{77}| .def_256))
(define-fun .def_603 () Bool (and .def_257 .def_602))
(define-fun .def_606 () Bool (and .def_603 .def_605))
(define-fun .def_607 () Bool (and .def_263 .def_606))
(define-fun .def_270 () Int (+ .def_16 .def_269))
(define-fun .def_271 () Bool (= .def_270 0))
(define-fun .def_608 () Bool (and .def_271 .def_607))
(define-fun .def_273 () Bool (or .def_127 .def_175))
(define-fun .def_609 () Bool (and .def_273 .def_608))
(define-fun .def_610 () Bool (and .def_151 .def_609))
(define-fun .def_611 () Bool (and .def_276 .def_610))
(define-fun .def_612 () Bool (and .def_160 .def_611))
(define-fun .def_283 () Int (+ .def_22 .def_87))
(define-fun .def_284 () Int (+ .def_20 .def_283))
(define-fun .def_285 () Bool (= .def_284 0))
(define-fun .def_613 () Bool (and .def_285 .def_612))
(define-fun .def_614 () Bool (and .def_171 .def_613))
(define-fun .def_287 () Bool (<= .def_22 0))
(define-fun .def_288 () Bool (or .def_126 .def_287))
(define-fun .def_615 () Bool (and .def_288 .def_614))
(define-fun .def_290 () Bool (not .def_287))
(define-fun .def_616 () Bool (and .def_290 .def_615))
(define-fun .def_617 () Bool (and .def_218 .def_616))
(define-fun .def_618 () Bool (and .def_82 .def_617))
(define-fun .def_691 () Bool (or .def_618 .def_690))
(define-fun .def_693 () Bool (and .def_691 .def_692))
(define-fun .def_66 () (Array Int Int) (! |.y{58}| :next |.y{92}|))
(define-fun .def_587 () Bool (= |.y{77}| .def_66))
(define-fun .def_579 () Bool (and .def_97 .def_296))
(define-fun .def_580 () Bool (and .def_228 .def_579))
(define-fun .def_581 () Bool (and .def_380 .def_580))
(define-fun .def_582 () Bool (and .def_382 .def_581))
(define-fun .def_583 () Bool (and .def_385 .def_582))
(define-fun .def_584 () Bool (and .def_101 .def_583))
(define-fun .def_585 () Bool (and .def_388 .def_584))
(define-fun .def_121 () Bool (not |.loc{12}|))
(define-fun .def_586 () Bool (and .def_121 .def_585))
(define-fun .def_588 () Bool (and .def_586 .def_587))
(define-fun .def_54 () Int (! |.y{52}| :next |.y{86}|))
(define-fun .def_511 () Bool (<= .def_54 .def_20))
(define-fun .def_589 () Bool (and .def_511 .def_588))
(define-fun .def_590 () Bool (and |.loc{9}| .def_589))
(define-fun .def_591 () Bool (and |.loc{10}| .def_590))
(define-fun .def_592 () Bool (and |.loc{11}| .def_591))
(define-fun .def_397 () Bool (= |.y{85}| .def_54))
(define-fun .def_593 () Bool (and .def_397 .def_592))
(define-fun .def_253 () Bool (= .def_64 |.y{91}|))
(define-fun .def_594 () Bool (and .def_253 .def_593))
(define-fun .def_595 () Bool (and .def_78 .def_594))
(define-fun .def_596 () Bool (and .def_218 .def_595))
(define-fun .def_597 () Bool (and .def_80 .def_596))
(define-fun .def_694 () Bool (or .def_597 .def_693))
(define-fun .def_554 () Bool (not .def_553))
(define-fun .def_555 () Bool (and .def_97 .def_554))
(define-fun .def_556 () Bool (and .def_226 .def_555))
(define-fun .def_557 () Bool (and .def_228 .def_556))
(define-fun .def_558 () Bool (and .def_101 .def_557))
(define-fun .def_235 () Bool (= .def_52 |.y{85}|))
(define-fun .def_559 () Bool (and .def_235 .def_558))
(define-fun .def_560 () Bool (and .def_121 .def_559))
(define-fun .def_561 () Bool (and .def_132 .def_560))
(define-fun .def_562 () Bool (and |.loc{9}| .def_561))
(define-fun .def_563 () Bool (and |.loc{10}| .def_562))
(define-fun .def_564 () Bool (and |.loc{11}| .def_563))
(define-fun .def_565 () Bool (and .def_253 .def_564))
(define-fun .def_566 () Bool (and .def_257 .def_565))
(define-fun .def_567 () Bool (and .def_263 .def_566))
(define-fun .def_568 () Bool (and .def_271 .def_567))
(define-fun .def_569 () Bool (and .def_273 .def_568))
(define-fun .def_570 () Bool (and .def_151 .def_569))
(define-fun .def_571 () Bool (and .def_276 .def_570))
(define-fun .def_572 () Bool (and .def_160 .def_571))
(define-fun .def_573 () Bool (and .def_285 .def_572))
(define-fun .def_574 () Bool (and .def_288 .def_573))
(define-fun .def_575 () Bool (and .def_76 .def_574))
(define-fun .def_576 () Bool (and .def_290 .def_575))
(define-fun .def_577 () Bool (and .def_78 .def_576))
(define-fun .def_578 () Bool (and .def_80 .def_577))
(define-fun .def_695 () Bool (or .def_578 .def_694))
(define-fun .def_68 () (Array Int Int) (! |.y{59}| :next |.y{93}|))
(define-fun .def_545 () Bool (= |.y{77}| .def_68))
(define-fun .def_297 () Bool (and .def_94 .def_296))
(define-fun .def_485 () Bool (and .def_97 .def_297))
(define-fun .def_486 () Bool (and .def_228 .def_485))
(define-fun .def_535 () Bool (and .def_380 .def_486))
(define-fun .def_536 () Bool (and .def_382 .def_535))
(define-fun .def_537 () Bool (and .def_385 .def_536))
(define-fun .def_538 () Bool (and .def_101 .def_537))
(define-fun .def_539 () Bool (and .def_388 .def_538))
(define-fun .def_540 () Bool (and .def_121 .def_539))
(define-fun .def_541 () Bool (and |.loc{10}| .def_540))
(define-fun .def_542 () Bool (and |.loc{11}| .def_541))
(define-fun .def_543 () Bool (and .def_250 .def_542))
(define-fun .def_544 () Bool (and .def_397 .def_543))
(define-fun .def_546 () Bool (and .def_544 .def_545))
(define-fun .def_547 () Bool (and .def_253 .def_546))
(define-fun .def_56 () Int (! |.y{53}| :next |.y{87}|))
(define-fun .def_463 () Bool (<= .def_56 .def_20))
(define-fun .def_548 () Bool (and .def_463 .def_547))
(define-fun .def_403 () Bool (= |.y{86}| .def_56))
(define-fun .def_549 () Bool (and .def_403 .def_548))
(define-fun .def_279 () Bool (= .def_66 |.y{92}|))
(define-fun .def_550 () Bool (and .def_279 .def_549))
(define-fun .def_551 () Bool (and .def_76 .def_550))
(define-fun .def_552 () Bool (and .def_80 .def_551))
(define-fun .def_696 () Bool (or .def_552 .def_695))
(define-fun .def_512 () Bool (not .def_511))
(define-fun .def_507 () Bool (and .def_97 .def_226))
(define-fun .def_508 () Bool (and .def_228 .def_507))
(define-fun .def_509 () Bool (and .def_101 .def_508))
(define-fun .def_510 () Bool (and .def_235 .def_509))
(define-fun .def_513 () Bool (and .def_510 .def_512))
(define-fun .def_514 () Bool (and .def_121 .def_513))
(define-fun .def_242 () Bool (= .def_54 |.y{86}|))
(define-fun .def_515 () Bool (and .def_242 .def_514))
(define-fun .def_516 () Bool (and .def_132 .def_515))
(define-fun .def_517 () Bool (and |.loc{10}| .def_516))
(define-fun .def_518 () Bool (and |.loc{11}| .def_517))
(define-fun .def_519 () Bool (and .def_250 .def_518))
(define-fun .def_520 () Bool (and .def_253 .def_519))
(define-fun .def_521 () Bool (and .def_257 .def_520))
(define-fun .def_522 () Bool (and .def_263 .def_521))
(define-fun .def_523 () Bool (and .def_271 .def_522))
(define-fun .def_524 () Bool (and .def_273 .def_523))
(define-fun .def_525 () Bool (and .def_151 .def_524))
(define-fun .def_526 () Bool (and .def_276 .def_525))
(define-fun .def_527 () Bool (and .def_160 .def_526))
(define-fun .def_528 () Bool (and .def_279 .def_527))
(define-fun .def_529 () Bool (and .def_285 .def_528))
(define-fun .def_530 () Bool (and .def_288 .def_529))
(define-fun .def_531 () Bool (and .def_290 .def_530))
(define-fun .def_532 () Bool (and .def_78 .def_531))
(define-fun .def_533 () Bool (and .def_218 .def_532))
(define-fun .def_534 () Bool (and .def_80 .def_533))
(define-fun .def_697 () Bool (or .def_534 .def_696))
(define-fun .def_70 () (Array Int Int) (! |.y{60}| :next |.y{94}|))
(define-fun .def_502 () Bool (= |.y{77}| .def_70))
(define-fun .def_58 () Int (! |.y{54}| :next |.y{88}|))
(define-fun .def_378 () Bool (= |.y{87}| .def_58))
(define-fun .def_487 () Bool (and .def_378 .def_486))
(define-fun .def_488 () Bool (and .def_380 .def_487))
(define-fun .def_489 () Bool (and .def_382 .def_488))
(define-fun .def_230 () Bool (= .def_68 |.y{93}|))
(define-fun .def_490 () Bool (and .def_230 .def_489))
(define-fun .def_491 () Bool (and .def_385 .def_490))
(define-fun .def_492 () Bool (and .def_101 .def_491))
(define-fun .def_493 () Bool (and .def_388 .def_492))
(define-fun .def_494 () Bool (and .def_121 .def_493))
(define-fun .def_495 () Bool (and |.loc{9}| .def_494))
(define-fun .def_496 () Bool (and |.loc{11}| .def_495))
(define-fun .def_497 () Bool (and .def_397 .def_496))
(define-fun .def_498 () Bool (and .def_253 .def_497))
(define-fun .def_499 () Bool (and .def_403 .def_498))
(define-fun .def_500 () Bool (and .def_279 .def_499))
(define-fun .def_501 () Bool (and .def_171 .def_500))
(define-fun .def_503 () Bool (and .def_501 .def_502))
(define-fun .def_436 () Bool (<= .def_58 .def_20))
(define-fun .def_504 () Bool (and .def_436 .def_503))
(define-fun .def_505 () Bool (and .def_218 .def_504))
(define-fun .def_506 () Bool (and .def_80 .def_505))
(define-fun .def_698 () Bool (or .def_506 .def_697))
(define-fun .def_464 () Bool (not .def_463))
(define-fun .def_411 () Bool (and .def_94 .def_97))
(define-fun .def_412 () Bool (and .def_226 .def_411))
(define-fun .def_413 () Bool (and .def_228 .def_412))
(define-fun .def_414 () Bool (and .def_230 .def_413))
(define-fun .def_459 () Bool (and .def_101 .def_414))
(define-fun .def_460 () Bool (and .def_235 .def_459))
(define-fun .def_461 () Bool (and .def_121 .def_460))
(define-fun .def_462 () Bool (and .def_242 .def_461))
(define-fun .def_465 () Bool (and .def_462 .def_464))
(define-fun .def_466 () Bool (and .def_132 .def_465))
(define-fun .def_467 () Bool (and |.loc{9}| .def_466))
(define-fun .def_468 () Bool (and |.loc{11}| .def_467))
(define-fun .def_469 () Bool (and .def_253 .def_468))
(define-fun .def_470 () Bool (and .def_257 .def_469))
(define-fun .def_259 () Bool (= .def_56 |.y{87}|))
(define-fun .def_471 () Bool (and .def_259 .def_470))
(define-fun .def_472 () Bool (and .def_263 .def_471))
(define-fun .def_473 () Bool (and .def_271 .def_472))
(define-fun .def_474 () Bool (and .def_273 .def_473))
(define-fun .def_475 () Bool (and .def_151 .def_474))
(define-fun .def_476 () Bool (and .def_276 .def_475))
(define-fun .def_477 () Bool (and .def_160 .def_476))
(define-fun .def_478 () Bool (and .def_279 .def_477))
(define-fun .def_479 () Bool (and .def_285 .def_478))
(define-fun .def_480 () Bool (and .def_171 .def_479))
(define-fun .def_481 () Bool (and .def_288 .def_480))
(define-fun .def_482 () Bool (and .def_76 .def_481))
(define-fun .def_483 () Bool (and .def_290 .def_482))
(define-fun .def_484 () Bool (and .def_80 .def_483))
(define-fun .def_699 () Bool (or .def_484 .def_698))
(define-fun .def_72 () (Array Int Int) (! |.y{61}| :next |.y{95}|))
(define-fun .def_443 () Bool (= |.y{77}| .def_72))
(define-fun .def_375 () Bool (and .def_93 .def_296))
(define-fun .def_376 () Bool (and .def_97 .def_375))
(define-fun .def_377 () Bool (and .def_228 .def_376))
(define-fun .def_379 () Bool (and .def_377 .def_378))
(define-fun .def_381 () Bool (and .def_379 .def_380))
(define-fun .def_383 () Bool (and .def_381 .def_382))
(define-fun .def_384 () Bool (and .def_230 .def_383))
(define-fun .def_386 () Bool (and .def_384 .def_385))
(define-fun .def_387 () Bool (and .def_101 .def_386))
(define-fun .def_444 () Bool (and .def_387 .def_443))
(define-fun .def_60 () Int (! |.y{55}| :next |.y{89}|))
(define-fun .def_348 () Bool (<= .def_60 .def_20))
(define-fun .def_445 () Bool (and .def_348 .def_444))
(define-fun .def_446 () Bool (and .def_388 .def_445))
(define-fun .def_447 () Bool (and .def_121 .def_446))
(define-fun .def_391 () Bool (= |.y{88}| .def_60))
(define-fun .def_448 () Bool (and .def_391 .def_447))
(define-fun .def_245 () Bool (= .def_70 |.y{94}|))
(define-fun .def_449 () Bool (and .def_245 .def_448))
(define-fun .def_450 () Bool (and |.loc{11}| .def_449))
(define-fun .def_451 () Bool (and .def_250 .def_450))
(define-fun .def_452 () Bool (and .def_397 .def_451))
(define-fun .def_453 () Bool (and .def_253 .def_452))
(define-fun .def_454 () Bool (and .def_403 .def_453))
(define-fun .def_455 () Bool (and .def_279 .def_454))
(define-fun .def_456 () Bool (and .def_171 .def_455))
(define-fun .def_457 () Bool (and .def_76 .def_456))
(define-fun .def_458 () Bool (and .def_78 .def_457))
(define-fun .def_700 () Bool (or .def_458 .def_699))
(define-fun .def_437 () Bool (not .def_436))
(define-fun .def_232 () Bool (= .def_58 |.y{88}|))
(define-fun .def_415 () Bool (and .def_232 .def_414))
(define-fun .def_416 () Bool (and .def_101 .def_415))
(define-fun .def_417 () Bool (and .def_235 .def_416))
(define-fun .def_418 () Bool (and .def_121 .def_417))
(define-fun .def_419 () Bool (and .def_242 .def_418))
(define-fun .def_420 () Bool (and .def_132 .def_419))
(define-fun .def_421 () Bool (and .def_245 .def_420))
(define-fun .def_422 () Bool (and |.loc{11}| .def_421))
(define-fun .def_423 () Bool (and .def_250 .def_422))
(define-fun .def_424 () Bool (and .def_253 .def_423))
(define-fun .def_425 () Bool (and .def_257 .def_424))
(define-fun .def_426 () Bool (and .def_259 .def_425))
(define-fun .def_427 () Bool (and .def_263 .def_426))
(define-fun .def_428 () Bool (and .def_271 .def_427))
(define-fun .def_429 () Bool (and .def_273 .def_428))
(define-fun .def_430 () Bool (and .def_151 .def_429))
(define-fun .def_431 () Bool (and .def_276 .def_430))
(define-fun .def_432 () Bool (and .def_160 .def_431))
(define-fun .def_433 () Bool (and .def_279 .def_432))
(define-fun .def_434 () Bool (and .def_285 .def_433))
(define-fun .def_435 () Bool (and .def_171 .def_434))
(define-fun .def_438 () Bool (and .def_435 .def_437))
(define-fun .def_439 () Bool (and .def_288 .def_438))
(define-fun .def_440 () Bool (and .def_290 .def_439))
(define-fun .def_441 () Bool (and .def_218 .def_440))
(define-fun .def_442 () Bool (and .def_80 .def_441))
(define-fun .def_701 () Bool (or .def_442 .def_700))
(define-fun .def_62 () Int (! |.y{56}| :next |.y{90}|))
(define-fun .def_406 () Bool (= |.y{89}| .def_62))
(define-fun .def_74 () (Array Int Int) (! |.y{62}| :next |.y{96}|))
(define-fun .def_400 () Bool (= |.y{77}| .def_74))
(define-fun .def_389 () Bool (and .def_387 .def_388))
(define-fun .def_390 () Bool (and .def_121 .def_389))
(define-fun .def_392 () Bool (and .def_390 .def_391))
(define-fun .def_393 () Bool (and .def_245 .def_392))
(define-fun .def_394 () Bool (and |.loc{9}| .def_393))
(define-fun .def_395 () Bool (and |.loc{10}| .def_394))
(define-fun .def_396 () Bool (and .def_141 .def_395))
(define-fun .def_398 () Bool (and .def_396 .def_397))
(define-fun .def_399 () Bool (and .def_253 .def_398))
(define-fun .def_401 () Bool (and .def_399 .def_400))
(define-fun .def_222 () Bool (<= .def_62 .def_20))
(define-fun .def_402 () Bool (and .def_222 .def_401))
(define-fun .def_404 () Bool (and .def_402 .def_403))
(define-fun .def_405 () Bool (and .def_279 .def_404))
(define-fun .def_407 () Bool (and .def_405 .def_406))
(define-fun .def_408 () Bool (and .def_78 .def_407))
(define-fun .def_409 () Bool (and .def_218 .def_408))
(define-fun .def_294 () Bool (= .def_72 |.y{95}|))
(define-fun .def_410 () Bool (and .def_294 .def_409))
(define-fun .def_702 () Bool (or .def_410 .def_701))
(define-fun .def_349 () Bool (not .def_348))
(define-fun .def_341 () Bool (and .def_93 .def_97))
(define-fun .def_342 () Bool (and .def_226 .def_341))
(define-fun .def_343 () Bool (and .def_228 .def_342))
(define-fun .def_344 () Bool (and .def_230 .def_343))
(define-fun .def_345 () Bool (and .def_232 .def_344))
(define-fun .def_346 () Bool (and .def_101 .def_345))
(define-fun .def_347 () Bool (and .def_235 .def_346))
(define-fun .def_350 () Bool (and .def_347 .def_349))
(define-fun .def_351 () Bool (and .def_121 .def_350))
(define-fun .def_352 () Bool (and .def_242 .def_351))
(define-fun .def_353 () Bool (and .def_132 .def_352))
(define-fun .def_354 () Bool (and .def_245 .def_353))
(define-fun .def_247 () Bool (= .def_60 |.y{89}|))
(define-fun .def_355 () Bool (and .def_247 .def_354))
(define-fun .def_356 () Bool (and |.loc{9}| .def_355))
(define-fun .def_357 () Bool (and |.loc{10}| .def_356))
(define-fun .def_358 () Bool (and .def_141 .def_357))
(define-fun .def_359 () Bool (and .def_253 .def_358))
(define-fun .def_360 () Bool (and .def_257 .def_359))
(define-fun .def_361 () Bool (and .def_259 .def_360))
(define-fun .def_362 () Bool (and .def_263 .def_361))
(define-fun .def_363 () Bool (and .def_271 .def_362))
(define-fun .def_364 () Bool (and .def_273 .def_363))
(define-fun .def_365 () Bool (and .def_151 .def_364))
(define-fun .def_366 () Bool (and .def_276 .def_365))
(define-fun .def_367 () Bool (and .def_160 .def_366))
(define-fun .def_368 () Bool (and .def_279 .def_367))
(define-fun .def_369 () Bool (and .def_285 .def_368))
(define-fun .def_370 () Bool (and .def_288 .def_369))
(define-fun .def_371 () Bool (and .def_76 .def_370))
(define-fun .def_372 () Bool (and .def_290 .def_371))
(define-fun .def_373 () Bool (and .def_78 .def_372))
(define-fun .def_374 () Bool (and .def_294 .def_373))
(define-fun .def_703 () Bool (or .def_374 .def_702))
(define-fun .def_46 () (Array Int Int) (! |.y{48}| :next |.y{82}|))
(define-fun .def_334 () Bool (= .def_46 |.y{96}|))
(define-fun .def_44 () (Array Int Int) (! |.y{47}| :next |.y{81}|))
(define-fun .def_332 () Bool (= .def_44 |.y{95}|))
(define-fun .def_42 () (Array Int Int) (! |.y{46}| :next |.y{80}|))
(define-fun .def_329 () Bool (= .def_42 |.y{94}|))
(define-fun .def_40 () (Array Int Int) (! |.y{45}| :next |.y{79}|))
(define-fun .def_327 () Bool (= .def_40 |.y{93}|))
(define-fun .def_38 () (Array Int Int) (! |.y{44}| :next |.y{78}|))
(define-fun .def_325 () Bool (= .def_38 |.y{92}|))
(define-fun .def_323 () Bool (= .def_36 |.y{91}|))
(define-fun .def_34 () Int (! |.y{42}| :next |.y{76}|))
(define-fun .def_321 () Bool (= .def_34 |.y{90}|))
(define-fun .def_32 () Int (! |.y{41}| :next |.y{75}|))
(define-fun .def_318 () Bool (= .def_32 |.y{89}|))
(define-fun .def_30 () Int (! |.y{40}| :next |.y{74}|))
(define-fun .def_316 () Bool (= .def_30 |.y{88}|))
(define-fun .def_28 () Int (! |.y{39}| :next |.y{73}|))
(define-fun .def_314 () Bool (= .def_28 |.y{87}|))
(define-fun .def_26 () Int (! |.y{38}| :next |.y{72}|))
(define-fun .def_312 () Bool (= .def_26 |.y{86}|))
(define-fun .def_24 () Int (! |.y{37}| :next |.y{71}|))
(define-fun .def_310 () Bool (= .def_24 |.y{85}|))
(define-fun .def_308 () Bool (= .def_22 |.y{84}|))
(define-fun .def_306 () Bool (= .def_20 |.y{70}|))
(define-fun .def_10 () Int (! |.y{35}| :next |.y{64}|))
(define-fun .def_304 () Bool (= |.y{63}| .def_10))
(define-fun .def_48 () (Array Int Int) (! |.y{49}| :next |.y{83}|))
(define-fun .def_300 () Bool (= |.y{77}| .def_48))
(define-fun .def_298 () Bool (and .def_93 .def_297))
(define-fun .def_299 () Bool (and .def_228 .def_298))
(define-fun .def_301 () Bool (and .def_299 .def_300))
(define-fun .def_12 () Int (! |.y{36}| :next |.y{65}|))
(define-fun .def_157 () Bool (<= .def_34 .def_12))
(define-fun .def_302 () Bool (and .def_157 .def_301))
(define-fun .def_303 () Bool (and .def_101 .def_302))
(define-fun .def_305 () Bool (and .def_303 .def_304))
(define-fun .def_307 () Bool (and .def_305 .def_306))
(define-fun .def_309 () Bool (and .def_307 .def_308))
(define-fun .def_311 () Bool (and .def_309 .def_310))
(define-fun .def_313 () Bool (and .def_311 .def_312))
(define-fun .def_315 () Bool (and .def_313 .def_314))
(define-fun .def_317 () Bool (and .def_315 .def_316))
(define-fun .def_319 () Bool (and .def_317 .def_318))
(define-fun .def_320 () Bool (and .def_121 .def_319))
(define-fun .def_322 () Bool (and .def_320 .def_321))
(define-fun .def_324 () Bool (and .def_322 .def_323))
(define-fun .def_326 () Bool (and .def_324 .def_325))
(define-fun .def_328 () Bool (and .def_326 .def_327))
(define-fun .def_330 () Bool (and .def_328 .def_329))
(define-fun .def_331 () Bool (and |.loc{10}| .def_330))
(define-fun .def_333 () Bool (and .def_331 .def_332))
(define-fun .def_335 () Bool (and .def_333 .def_334))
(define-fun .def_336 () Bool (and .def_250 .def_335))
(define-fun .def_337 () Bool (and .def_141 .def_336))
(define-fun .def_338 () Bool (and .def_151 .def_337))
(define-fun .def_339 () Bool (and .def_276 .def_338))
(define-fun .def_340 () Bool (and .def_76 .def_339))
(define-fun .def_704 () Bool (or .def_340 .def_703))
(define-fun .def_239 () Bool (= .def_74 |.y{96}|))
(define-fun .def_237 () Bool (= .def_62 |.y{90}|))
(define-fun .def_223 () Bool (not .def_222))
(define-fun .def_224 () Bool (and .def_93 .def_223))
(define-fun .def_225 () Bool (and .def_97 .def_224))
(define-fun .def_227 () Bool (and .def_225 .def_226))
(define-fun .def_229 () Bool (and .def_227 .def_228))
(define-fun .def_231 () Bool (and .def_229 .def_230))
(define-fun .def_233 () Bool (and .def_231 .def_232))
(define-fun .def_234 () Bool (and .def_101 .def_233))
(define-fun .def_236 () Bool (and .def_234 .def_235))
(define-fun .def_238 () Bool (and .def_236 .def_237))
(define-fun .def_240 () Bool (and .def_238 .def_239))
(define-fun .def_241 () Bool (and .def_121 .def_240))
(define-fun .def_243 () Bool (and .def_241 .def_242))
(define-fun .def_244 () Bool (and .def_132 .def_243))
(define-fun .def_246 () Bool (and .def_244 .def_245))
(define-fun .def_248 () Bool (and .def_246 .def_247))
(define-fun .def_249 () Bool (and |.loc{10}| .def_248))
(define-fun .def_251 () Bool (and .def_249 .def_250))
(define-fun .def_252 () Bool (and .def_141 .def_251))
(define-fun .def_254 () Bool (and .def_252 .def_253))
(define-fun .def_258 () Bool (and .def_254 .def_257))
(define-fun .def_260 () Bool (and .def_258 .def_259))
(define-fun .def_264 () Bool (and .def_260 .def_263))
(define-fun .def_272 () Bool (and .def_264 .def_271))
(define-fun .def_274 () Bool (and .def_272 .def_273))
(define-fun .def_275 () Bool (and .def_151 .def_274))
(define-fun .def_277 () Bool (and .def_275 .def_276))
(define-fun .def_278 () Bool (and .def_160 .def_277))
(define-fun .def_280 () Bool (and .def_278 .def_279))
(define-fun .def_286 () Bool (and .def_280 .def_285))
(define-fun .def_289 () Bool (and .def_286 .def_288))
(define-fun .def_291 () Bool (and .def_289 .def_290))
(define-fun .def_292 () Bool (and .def_78 .def_291))
(define-fun .def_293 () Bool (and .def_218 .def_292))
(define-fun .def_295 () Bool (and .def_293 .def_294))
(define-fun .def_705 () Bool (or .def_295 .def_704))
(define-fun .def_220 () Bool (= |.y{65}| 0))
(define-fun .def_211 () Bool (<= |.y{75}| 0))
(define-fun .def_212 () Bool (not .def_211))
(define-fun .def_208 () Bool (<= |.y{74}| 0))
(define-fun .def_209 () Bool (not .def_208))
(define-fun .def_205 () Bool (<= |.y{73}| 0))
(define-fun .def_206 () Bool (not .def_205))
(define-fun .def_202 () Bool (<= |.y{72}| 0))
(define-fun .def_203 () Bool (not .def_202))
(define-fun .def_199 () Bool (<= |.y{71}| 0))
(define-fun .def_200 () Bool (not .def_199))
(define-fun .def_195 () Bool (<= |.y{70}| 0))
(define-fun .def_196 () Bool (not .def_195))
(define-fun .def_192 () Bool (<= |.y{69}| 0))
(define-fun .def_193 () Bool (not .def_192))
(define-fun .def_189 () Bool (<= |.y{67}| 0))
(define-fun .def_190 () Bool (not .def_189))
(define-fun .def_185 () Bool (<= |.y{76}| 0))
(define-fun .def_186 () Bool (not .def_185))
(define-fun .def_181 () Bool (<= |.y{64}| 0))
(define-fun .def_182 () Bool (not .def_181))
(define-fun .def_183 () Bool (and .def_94 .def_182))
(define-fun .def_184 () Bool (and .def_93 .def_183))
(define-fun .def_187 () Bool (and .def_184 .def_186))
(define-fun .def_188 () Bool (and .def_97 .def_187))
(define-fun .def_191 () Bool (and .def_188 .def_190))
(define-fun .def_194 () Bool (and .def_191 .def_193))
(define-fun .def_197 () Bool (and .def_194 .def_196))
(define-fun .def_198 () Bool (and .def_101 .def_197))
(define-fun .def_201 () Bool (and .def_198 .def_200))
(define-fun .def_204 () Bool (and .def_201 .def_203))
(define-fun .def_207 () Bool (and .def_204 .def_206))
(define-fun .def_210 () Bool (and .def_207 .def_209))
(define-fun .def_213 () Bool (and .def_210 .def_212))
(define-fun .def_214 () Bool (and .def_121 .def_213))
(define-fun .def_215 () Bool (and |.loc{9}| .def_214))
(define-fun .def_216 () Bool (and .def_141 .def_215))
(define-fun .def_217 () Bool (and .def_171 .def_216))
(define-fun .def_219 () Bool (and .def_217 .def_218))
(define-fun .def_221 () Bool (and .def_219 .def_220))
(define-fun .def_706 () Bool (or .def_221 .def_705))
(define-fun .def_173 () Bool (<= .def_10 0))
(define-fun .def_179 () Bool (not .def_173))
(define-fun .def_176 () Bool (or .def_173 .def_175))
(define-fun .def_167 () Int (+ .def_12 .def_166))
(define-fun .def_168 () Int (+ .def_10 .def_167))
(define-fun .def_169 () Bool (= .def_168 0))
(define-fun .def_158 () Bool (not .def_157))
(define-fun .def_154 () (Array Int Int) (store .def_14 |.x{667}| |.x{54}|))
(define-fun .def_155 () Bool (= |.y{66}| .def_154))
(define-fun .def_148 () (Array Int Int) (store .def_18 |.x{671}| |.x{54}|))
(define-fun .def_149 () Bool (= |.y{68}| .def_148))
(define-fun .def_143 () Int (* (- 1) |.y{65}|))
(define-fun .def_144 () Int (+ .def_12 .def_143))
(define-fun .def_145 () Bool (= .def_144 (- 1)))
(define-fun .def_138 () Bool (= .def_48 |.y{83}|))
(define-fun .def_136 () Bool (= .def_46 |.y{82}|))
(define-fun .def_134 () Bool (= .def_44 |.y{81}|))
(define-fun .def_130 () Bool (= .def_42 |.y{80}|))
(define-fun .def_123 () Bool (= .def_40 |.y{79}|))
(define-fun .def_119 () Bool (= .def_38 |.y{78}|))
(define-fun .def_117 () Bool (= .def_36 |.y{77}|))
(define-fun .def_115 () Bool (= .def_34 |.y{76}|))
(define-fun .def_113 () Bool (= .def_32 |.y{75}|))
(define-fun .def_111 () Bool (= .def_30 |.y{74}|))
(define-fun .def_109 () Bool (= .def_28 |.y{73}|))
(define-fun .def_107 () Bool (= .def_26 |.y{72}|))
(define-fun .def_105 () Bool (= .def_24 |.y{71}|))
(define-fun .def_103 () Bool (= .def_20 |.y{69}|))
(define-fun .def_99 () Bool (= .def_10 |.y{64}|))
(define-fun .def_90 () Int (+ .def_16 .def_87))
(define-fun .def_91 () Int (+ .def_12 .def_90))
(define-fun .def_92 () Bool (= .def_91 0))
(define-fun .def_96 () Bool (and .def_92 .def_95))
(define-fun .def_98 () Bool (and .def_96 .def_97))
(define-fun .def_100 () Bool (and .def_98 .def_99))
(define-fun .def_102 () Bool (and .def_100 .def_101))
(define-fun .def_104 () Bool (and .def_102 .def_103))
(define-fun .def_106 () Bool (and .def_104 .def_105))
(define-fun .def_108 () Bool (and .def_106 .def_107))
(define-fun .def_110 () Bool (and .def_108 .def_109))
(define-fun .def_112 () Bool (and .def_110 .def_111))
(define-fun .def_114 () Bool (and .def_112 .def_113))
(define-fun .def_116 () Bool (and .def_114 .def_115))
(define-fun .def_118 () Bool (and .def_116 .def_117))
(define-fun .def_120 () Bool (and .def_118 .def_119))
(define-fun .def_122 () Bool (and .def_120 .def_121))
(define-fun .def_124 () Bool (and .def_122 .def_123))
(define-fun .def_129 () Bool (and .def_124 .def_128))
(define-fun .def_131 () Bool (and .def_129 .def_130))
(define-fun .def_133 () Bool (and .def_131 .def_132))
(define-fun .def_135 () Bool (and .def_133 .def_134))
(define-fun .def_137 () Bool (and .def_135 .def_136))
(define-fun .def_139 () Bool (and .def_137 .def_138))
(define-fun .def_140 () Bool (and |.loc{9}| .def_139))
(define-fun .def_142 () Bool (and .def_140 .def_141))
(define-fun .def_146 () Bool (and .def_142 .def_145))
(define-fun .def_150 () Bool (and .def_146 .def_149))
(define-fun .def_152 () Bool (and .def_150 .def_151))
(define-fun .def_156 () Bool (and .def_152 .def_155))
(define-fun .def_159 () Bool (and .def_156 .def_158))
(define-fun .def_161 () Bool (and .def_159 .def_160))
(define-fun .def_170 () Bool (and .def_161 .def_169))
(define-fun .def_172 () Bool (and .def_170 .def_171))
(define-fun .def_177 () Bool (and .def_172 .def_176))
(define-fun .def_178 () Bool (and .def_76 .def_177))
(define-fun .def_180 () Bool (and .def_178 .def_179))
(define-fun .def_707 () Bool (! (or .def_180 .def_706) :trans true))
(define-fun .def_711 () Bool (and .def_78 .def_218))
(define-fun .def_712 () Bool (and .def_93 .def_711))
(define-fun .def_713 () Bool (and .def_82 .def_712))
(define-fun .def_714 () Bool (! (not .def_713) :invar-property 0))
(assert true)
